nNurses = 95;
nHours = 37;
minHours = 4;
maxHours = 13;
maxConsec = 12;
maxPresence = 19;
demand = [11, 15, 11, 16, 18, 22, 17, 14, 19, 21, 16, 21, 25, 29, 34, 29, 28, 32, 34, 29, 33, 30, 33, 34, 30, 28, 31, 32, 32, 33, 31, 34, 30, 28, 33, 33, 28];
